<?xml version="1.0" encoding="UTF-8"?><osil xmlns="os.optimizationservices.org"   xmlns:xsi="http://www.w3.org/2001/XMLSchema-instance" xsi:schemaLocation="os.optimizationservices.org http://www.optimizationservices.org/schemas/2.0/OSiL.xsd" ><instanceHeader><name>q_20_0_75_1</name></instanceHeader><instanceData><variables numberOfVariables="20"><var name="x1" ub="1"/><var name="x2" ub="1"/><var name="x3" ub="1"/><var name="x4" ub="1"/><var name="x5" ub="1"/><var name="x6" ub="1"/><var name="x7" ub="1"/><var name="x8" ub="1"/><var name="x9" ub="1"/><var name="x10" ub="1"/><var name="x11" ub="1"/><var name="x12" ub="1"/><var name="x13" ub="1"/><var name="x14" ub="1"/><var name="x15" ub="1"/><var name="x16" ub="1"/><var name="x17" ub="1"/><var name="x18" ub="1"/><var name="x19" ub="1"/><var name="x20" ub="1"/></variables><objectives numberOfObjectives="1"><obj maxOrMin="min" name="defObj_x21" numberOfObjCoef="20"><coef idx="0">2.19e-2</coef><coef idx="1">9.7e-3</coef><coef idx="2">.9235</coef><coef idx="3">.1005</coef><coef idx="4">-.6207</coef><coef idx="5">-.5978</coef><coef idx="6">-.5025</coef><coef idx="7">.9402</coef><coef idx="8">.5528</coef><coef idx="9">-.4546</coef><coef idx="10">-6.1e-3</coef><coef idx="11">-.2025</coef><coef idx="12">.2266</coef><coef idx="13">-.8295</coef><coef idx="14">.474</coef><coef idx="15">.7257</coef><coef idx="16">-.3179</coef><coef idx="17">.3889</coef><coef idx="18">.2838</coef><coef idx="19">-.829</coef></obj></objectives><quadraticCoefficients  numberOfQuadraticTerms="110" ><qTerm  idx="-1"  idxOne="0"  idxTwo="0"  coef=".3767"/><qTerm  idx="-1"  idxOne="0"  idxTwo="5"  coef="-.3868"/><qTerm  idx="-1"  idxOne="0"  idxTwo="7"  coef=".4704"/><qTerm  idx="-1"  idxOne="0"  idxTwo="8"  coef=".5043"/><qTerm  idx="-1"  idxOne="0"  idxTwo="9"  coef="-.2086"/><qTerm  idx="-1"  idxOne="0"  idxTwo="10"  coef="-.8244"/><qTerm  idx="-1"  idxOne="0"  idxTwo="13"  coef="-.9021"/><qTerm  idx="-1"  idxOne="0"  idxTwo="14"  coef=".5587"/><qTerm  idx="-1"  idxOne="0"  idxTwo="16"  coef=".3616"/><qTerm  idx="-1"  idxOne="0"  idxTwo="17"  coef="-.3769"/><qTerm  idx="-1"  idxOne="0"  idxTwo="18"  coef="4.55e-2"/><qTerm  idx="-1"  idxOne="0"  idxTwo="19"  coef="1.16e-2"/><qTerm  idx="-1"  idxOne="1"  idxTwo="1"  coef="-.1229"/><qTerm  idx="-1"  idxOne="1"  idxTwo="4"  coef=".1753"/><qTerm  idx="-1"  idxOne="1"  idxTwo="6"  coef="-.4053"/><qTerm  idx="-1"  idxOne="1"  idxTwo="7"  coef="-.4102"/><qTerm  idx="-1"  idxOne="1"  idxTwo="8"  coef="-.8524"/><qTerm  idx="-1"  idxOne="1"  idxTwo="10"  coef=".9499"/><qTerm  idx="-1"  idxOne="1"  idxTwo="11"  coef=".4563"/><qTerm  idx="-1"  idxOne="1"  idxTwo="12"  coef=".5162"/><qTerm  idx="-1"  idxOne="1"  idxTwo="14"  coef="-.3816"/><qTerm  idx="-1"  idxOne="1"  idxTwo="15"  coef="-.507"/><qTerm  idx="-1"  idxOne="1"  idxTwo="17"  coef="-.4862"/><qTerm  idx="-1"  idxOne="1"  idxTwo="18"  coef=".2361"/><qTerm  idx="-1"  idxOne="1"  idxTwo="19"  coef=".8756"/><qTerm  idx="-1"  idxOne="2"  idxTwo="2"  coef=".9844"/><qTerm  idx="-1"  idxOne="2"  idxTwo="3"  coef="-.5504"/><qTerm  idx="-1"  idxOne="2"  idxTwo="5"  coef=".8946"/><qTerm  idx="-1"  idxOne="2"  idxTwo="6"  coef=".6956"/><qTerm  idx="-1"  idxOne="2"  idxTwo="7"  coef=".4003"/><qTerm  idx="-1"  idxOne="2"  idxTwo="8"  coef=".1089"/><qTerm  idx="-1"  idxOne="2"  idxTwo="9"  coef="-.1168"/><qTerm  idx="-1"  idxOne="2"  idxTwo="11"  coef="-.5016"/><qTerm  idx="-1"  idxOne="2"  idxTwo="13"  coef=".7953"/><qTerm  idx="-1"  idxOne="2"  idxTwo="15"  coef="-.7085"/><qTerm  idx="-1"  idxOne="2"  idxTwo="16"  coef="-.1308"/><qTerm  idx="-1"  idxOne="2"  idxTwo="17"  coef="-8.52e-2"/><qTerm  idx="-1"  idxOne="3"  idxTwo="3"  coef="-.3812"/><qTerm  idx="-1"  idxOne="3"  idxTwo="8"  coef="-3.82e-2"/><qTerm  idx="-1"  idxOne="3"  idxTwo="9"  coef=".3795"/><qTerm  idx="-1"  idxOne="3"  idxTwo="10"  coef=".6216"/><qTerm  idx="-1"  idxOne="3"  idxTwo="14"  coef="-.2157"/><qTerm  idx="-1"  idxOne="3"  idxTwo="15"  coef="-.4137"/><qTerm  idx="-1"  idxOne="3"  idxTwo="16"  coef=".152"/><qTerm  idx="-1"  idxOne="3"  idxTwo="17"  coef=".4507"/><qTerm  idx="-1"  idxOne="3"  idxTwo="19"  coef="-.7145"/><qTerm  idx="-1"  idxOne="4"  idxTwo="4"  coef="-.3329"/><qTerm  idx="-1"  idxOne="4"  idxTwo="6"  coef="-.6792"/><qTerm  idx="-1"  idxOne="4"  idxTwo="7"  coef="6.92e-2"/><qTerm  idx="-1"  idxOne="4"  idxTwo="9"  coef=".4467"/><qTerm  idx="-1"  idxOne="4"  idxTwo="10"  coef="-.5436"/><qTerm  idx="-1"  idxOne="4"  idxTwo="12"  coef="-.602"/><qTerm  idx="-1"  idxOne="4"  idxTwo="13"  coef=".9452"/><qTerm  idx="-1"  idxOne="4"  idxTwo="14"  coef=".9871"/><qTerm  idx="-1"  idxOne="4"  idxTwo="15"  coef="-.8361"/><qTerm  idx="-1"  idxOne="4"  idxTwo="17"  coef="-.4982"/><qTerm  idx="-1"  idxOne="4"  idxTwo="19"  coef="-.5683"/><qTerm  idx="-1"  idxOne="5"  idxTwo="5"  coef="-.6084"/><qTerm  idx="-1"  idxOne="5"  idxTwo="7"  coef=".7005"/><qTerm  idx="-1"  idxOne="5"  idxTwo="8"  coef="-.9106"/><qTerm  idx="-1"  idxOne="5"  idxTwo="9"  coef=".7278"/><qTerm  idx="-1"  idxOne="5"  idxTwo="11"  coef="-.8657"/><qTerm  idx="-1"  idxOne="5"  idxTwo="14"  coef="-.1454"/><qTerm  idx="-1"  idxOne="5"  idxTwo="15"  coef="-.7254"/><qTerm  idx="-1"  idxOne="5"  idxTwo="17"  coef="-.7618"/><qTerm  idx="-1"  idxOne="5"  idxTwo="19"  coef="-.3881"/><qTerm  idx="-1"  idxOne="6"  idxTwo="6"  coef=".2265"/><qTerm  idx="-1"  idxOne="6"  idxTwo="8"  coef=".3273"/><qTerm  idx="-1"  idxOne="6"  idxTwo="10"  coef=".7918"/><qTerm  idx="-1"  idxOne="6"  idxTwo="13"  coef=".5074"/><qTerm  idx="-1"  idxOne="6"  idxTwo="16"  coef=".2597"/><qTerm  idx="-1"  idxOne="6"  idxTwo="19"  coef="-.558"/><qTerm  idx="-1"  idxOne="7"  idxTwo="12"  coef="-3.23e-2"/><qTerm  idx="-1"  idxOne="7"  idxTwo="13"  coef=".23"/><qTerm  idx="-1"  idxOne="7"  idxTwo="18"  coef=".9753"/><qTerm  idx="-1"  idxOne="7"  idxTwo="19"  coef=".1184"/><qTerm  idx="-1"  idxOne="8"  idxTwo="9"  coef="-.2582"/><qTerm  idx="-1"  idxOne="8"  idxTwo="10"  coef="-.3248"/><qTerm  idx="-1"  idxOne="8"  idxTwo="11"  coef=".4909"/><qTerm  idx="-1"  idxOne="8"  idxTwo="12"  coef=".1395"/><qTerm  idx="-1"  idxOne="8"  idxTwo="15"  coef="-8.77e-2"/><qTerm  idx="-1"  idxOne="9"  idxTwo="11"  coef=".2964"/><qTerm  idx="-1"  idxOne="9"  idxTwo="13"  coef=".3672"/><qTerm  idx="-1"  idxOne="9"  idxTwo="16"  coef="-.6592"/><qTerm  idx="-1"  idxOne="9"  idxTwo="17"  coef="-.4539"/><qTerm  idx="-1"  idxOne="9"  idxTwo="18"  coef="-.1185"/><qTerm  idx="-1"  idxOne="9"  idxTwo="19"  coef="-8.46e-2"/><qTerm  idx="-1"  idxOne="10"  idxTwo="10"  coef="-.2095"/><qTerm  idx="-1"  idxOne="10"  idxTwo="12"  coef=".3767"/><qTerm  idx="-1"  idxOne="10"  idxTwo="15"  coef="-.4022"/><qTerm  idx="-1"  idxOne="10"  idxTwo="17"  coef="-.5895"/><qTerm  idx="-1"  idxOne="10"  idxTwo="19"  coef="-.6154"/><qTerm  idx="-1"  idxOne="11"  idxTwo="11"  coef="-.162"/><qTerm  idx="-1"  idxOne="11"  idxTwo="12"  coef=".3813"/><qTerm  idx="-1"  idxOne="11"  idxTwo="14"  coef="-.7189"/><qTerm  idx="-1"  idxOne="11"  idxTwo="17"  coef="-.7125"/><qTerm  idx="-1"  idxOne="11"  idxTwo="18"  coef=".3249"/><qTerm  idx="-1"  idxOne="12"  idxTwo="19"  coef=".1514"/><qTerm  idx="-1"  idxOne="13"  idxTwo="15"  coef=".5499"/><qTerm  idx="-1"  idxOne="13"  idxTwo="16"  coef=".5506"/><qTerm  idx="-1"  idxOne="14"  idxTwo="15"  coef=".5307"/><qTerm  idx="-1"  idxOne="14"  idxTwo="17"  coef=".753"/><qTerm  idx="-1"  idxOne="15"  idxTwo="15"  coef="-.8016"/><qTerm  idx="-1"  idxOne="15"  idxTwo="17"  coef="-.331"/><qTerm  idx="-1"  idxOne="15"  idxTwo="18"  coef=".2902"/><qTerm  idx="-1"  idxOne="15"  idxTwo="19"  coef="-.7368"/><qTerm  idx="-1"  idxOne="16"  idxTwo="17"  coef=".6151"/><qTerm  idx="-1"  idxOne="17"  idxTwo="17"  coef="8.37e-2"/><qTerm  idx="-1"  idxOne="17"  idxTwo="18"  coef="-.4685"/><qTerm  idx="-1"  idxOne="18"  idxTwo="18"  coef="-8.23e-2"/></quadraticCoefficients></instanceData></osil>
